% Logging successfully configured
%%%mzn-stat: initTime=0.005069729
%%%mzn-stat: objective=1011
%%%mzn-stat: nodes=327
%%%mzn-stat: restarts=0
%%%mzn-stat: peakDepth=324
%%%mzn-stat: solveTime=0.00295369
%%%mzn-stat: variables=828
%%%mzn-stat: propagators=503
%%%mzn-stat: failures=3
%%%mzn-stat: propagations=1812
%%%mzn-stat: nogoods=3
%%%mzn-stat: numAtomicConstraintsPropagated=0
%%%mzn-stat: allDifferentNumber1PropagationsTotal=67
%%%mzn-stat: allDifferentNumber1PropagationsThatFoundConflict=2
%%%mzn-stat: allDifferentNumber1PropagationsThatPruned=35
%%%mzn-stat: allDifferentNumber1TotalValuesPruned=224
%%%mzn-stat: allDifferentNumber1TotalHallSetSizeConflict=5
%%%mzn-stat: allDifferentNumber1NumberOfConflicts=2
%%%mzn-stat: allDifferentNumber1MaxHallSetSizeConflict=3
%%%mzn-stat: allDifferentNumber1TotalPruningHallSetSize=1008
%%%mzn-stat: allDifferentNumber1NumberOfPruningExplanations=224
%%%mzn-stat: allDifferentNumber1MaxPruningHallSetSize=24
%%%mzn-stat: allDifferentNumber1TotalFixedEdgesAtConflict=94
%%%mzn-stat: allDifferentNumber1TotalVarsInvolvedInPruning=185
%%%mzn-stat: allDifferentNumber1MaxValuesPrunedFromSingleVar=7
%%%mzn-stat: allDifferentNumber1TotalSccSizeAtPruning=209
%%%mzn-stat: allDifferentNumber1NumberOfSccPruningCalls=35
%%%mzn-stat: circuitNumber2PropagationsThatFoundConflict=1
%%%mzn-stat: circuitNumber2TotalFixedEdgesAtConflict=50
%%%mzn-stat: circuitNumber2NumberOfConflicts=1
%%%mzn-stat: circuitNumber2PropagationsThatPruned=5
%%%mzn-stat: circuitNumber2PropagationsTotal=36
%%%mzn-stat: AverageConflictSize=12.333333333333334
%%%mzn-stat: NumUnitNogoodsLearned=0
%%%mzn-stat: AverageLearnedNogoodLength=25.333333333333332
%%%mzn-stat: AverageBacktrackAmount=0
%%%mzn-stat: AverageLbd=19.333333333333332
%%%mzn-stat: 2AutonomousSearchNumBackupCalled=298
%%%mzn-stat: 2AutonomousSearchNumPredicatesRemoved=0
%%%mzn-stat: 2AutonomousSearchNumCalls=299
%%%mzn-stat: 2AutonomousSearchNumPredicatesAdded=650
%%%mzn-stat: 2AutonomousSearchAverageSizeOfHeap=2.1739130434782608
%%%mzn-stat: 2AutonomousSearchNumAssignedPredicatesEncountered=650
%%%mzn-stat-end
maxleg = 1011;
succ = array1d(1..50,[2, 11, 18, 19, 4, 23, 22, 17, 25, 12, 9, 41, 15, 24, 7, 3, 13, 36, 1, 40, 20, 6, 42, 32, 47, 27, 49, 30, 8, 44, 48, 26, 38, 50, 37, 46, 14, 10, 34, 33, 16, 31, 28, 39, 5, 35, 21, 45, 43, 29]);
% time elapsed: 0.24 s
----------
%%%mzn-stat: initTime=0.005069729
%%%mzn-stat: objective=986
%%%mzn-stat: nodes=645
%%%mzn-stat: restarts=0
%%%mzn-stat: peakDepth=324
%%%mzn-stat: solveTime=0.005106537
%%%mzn-stat: variables=828
%%%mzn-stat: propagators=503
%%%mzn-stat: failures=5
%%%mzn-stat: propagations=2774
%%%mzn-stat: nogoods=5
%%%mzn-stat: numAtomicConstraintsPropagated=0
%%%mzn-stat: allDifferentNumber1PropagationsTotal=125
%%%mzn-stat: allDifferentNumber1PropagationsThatFoundConflict=2
%%%mzn-stat: allDifferentNumber1PropagationsThatPruned=67
%%%mzn-stat: allDifferentNumber1TotalValuesPruned=405
%%%mzn-stat: allDifferentNumber1TotalHallSetSizeConflict=5
%%%mzn-stat: allDifferentNumber1NumberOfConflicts=2
%%%mzn-stat: allDifferentNumber1MaxHallSetSizeConflict=3
%%%mzn-stat: allDifferentNumber1TotalPruningHallSetSize=1705
%%%mzn-stat: allDifferentNumber1NumberOfPruningExplanations=405
%%%mzn-stat: allDifferentNumber1MaxPruningHallSetSize=24
%%%mzn-stat: allDifferentNumber1TotalFixedEdgesAtConflict=94
%%%mzn-stat: allDifferentNumber1TotalVarsInvolvedInPruning=341
%%%mzn-stat: allDifferentNumber1MaxValuesPrunedFromSingleVar=7
%%%mzn-stat: allDifferentNumber1TotalSccSizeAtPruning=362
%%%mzn-stat: allDifferentNumber1NumberOfSccPruningCalls=67
%%%mzn-stat: circuitNumber2PropagationsThatFoundConflict=3
%%%mzn-stat: circuitNumber2TotalFixedEdgesAtConflict=145
%%%mzn-stat: circuitNumber2NumberOfConflicts=3
%%%mzn-stat: circuitNumber2PropagationsThatPruned=9
%%%mzn-stat: circuitNumber2PropagationsTotal=68
%%%mzn-stat: AverageConflictSize=15.2
%%%mzn-stat: NumUnitNogoodsLearned=0
%%%mzn-stat: AverageLearnedNogoodLength=28.8
%%%mzn-stat: AverageBacktrackAmount=0
%%%mzn-stat: AverageLbd=19.2
%%%mzn-stat: 2AutonomousSearchNumBackupCalled=590
%%%mzn-stat: 2AutonomousSearchNumPredicatesRemoved=0
%%%mzn-stat: 2AutonomousSearchNumCalls=592
%%%mzn-stat: 2AutonomousSearchNumPredicatesAdded=906
%%%mzn-stat: 2AutonomousSearchAverageSizeOfHeap=2.248310810810811
%%%mzn-stat: 2AutonomousSearchNumAssignedPredicatesEncountered=1331
%%%mzn-stat-end
maxleg = 986;
succ = array1d(1..50,[2, 11, 18, 19, 4, 23, 22, 35, 17, 12, 9, 41, 15, 24, 7, 3, 13, 29, 1, 25, 20, 6, 42, 32, 48, 27, 49, 30, 8, 44, 43, 26, 38, 50, 37, 46, 14, 10, 34, 33, 16, 31, 28, 39, 5, 47, 21, 45, 36, 40]);
% time elapsed: 0.24 s
----------
%%%mzn-stat: initTime=0.005069729
%%%mzn-stat: objective=935
%%%mzn-stat: nodes=949
%%%mzn-stat: restarts=0
%%%mzn-stat: peakDepth=324
%%%mzn-stat: solveTime=0.006687409
%%%mzn-stat: variables=828
%%%mzn-stat: propagators=503
%%%mzn-stat: failures=5
%%%mzn-stat: propagations=3675
%%%mzn-stat: nogoods=5
%%%mzn-stat: numAtomicConstraintsPropagated=0
%%%mzn-stat: allDifferentNumber1PropagationsTotal=180
%%%mzn-stat: allDifferentNumber1PropagationsThatFoundConflict=2
%%%mzn-stat: allDifferentNumber1PropagationsThatPruned=96
%%%mzn-stat: allDifferentNumber1TotalValuesPruned=541
%%%mzn-stat: allDifferentNumber1TotalHallSetSizeConflict=5
%%%mzn-stat: allDifferentNumber1NumberOfConflicts=2
%%%mzn-stat: allDifferentNumber1MaxHallSetSizeConflict=3
%%%mzn-stat: allDifferentNumber1TotalPruningHallSetSize=1948
%%%mzn-stat: allDifferentNumber1NumberOfPruningExplanations=541
%%%mzn-stat: allDifferentNumber1MaxPruningHallSetSize=24
%%%mzn-stat: allDifferentNumber1TotalFixedEdgesAtConflict=94
%%%mzn-stat: allDifferentNumber1TotalVarsInvolvedInPruning=471
%%%mzn-stat: allDifferentNumber1MaxValuesPrunedFromSingleVar=7
%%%mzn-stat: allDifferentNumber1TotalSccSizeAtPruning=449
%%%mzn-stat: allDifferentNumber1NumberOfSccPruningCalls=96
%%%mzn-stat: circuitNumber2PropagationsThatFoundConflict=3
%%%mzn-stat: circuitNumber2TotalFixedEdgesAtConflict=145
%%%mzn-stat: circuitNumber2NumberOfConflicts=3
%%%mzn-stat: circuitNumber2PropagationsThatPruned=12
%%%mzn-stat: circuitNumber2PropagationsTotal=97
%%%mzn-stat: AverageConflictSize=15.2
%%%mzn-stat: NumUnitNogoodsLearned=0
%%%mzn-stat: AverageLearnedNogoodLength=28.8
%%%mzn-stat: AverageBacktrackAmount=0
%%%mzn-stat: AverageLbd=19.2
%%%mzn-stat: 2AutonomousSearchNumBackupCalled=868
%%%mzn-stat: 2AutonomousSearchNumPredicatesRemoved=0
%%%mzn-stat: 2AutonomousSearchNumCalls=871
%%%mzn-stat: 2AutonomousSearchNumPredicatesAdded=906
%%%mzn-stat: 2AutonomousSearchAverageSizeOfHeap=2.309988518943743
%%%mzn-stat: 2AutonomousSearchNumAssignedPredicatesEncountered=2012
%%%mzn-stat-end
maxleg = 935;
succ = array1d(1..50,[2, 11, 18, 19, 4, 23, 22, 35, 17, 12, 9, 41, 15, 24, 7, 3, 13, 36, 1, 25, 20, 6, 42, 32, 40, 27, 39, 47, 8, 28, 48, 49, 38, 50, 37, 46, 14, 10, 34, 33, 16, 43, 31, 30, 5, 26, 21, 44, 45, 29]);
% time elapsed: 0.24 s
----------
%%%mzn-stat: initTime=0.005069729
%%%mzn-stat: objective=917
%%%mzn-stat: nodes=1252
%%%mzn-stat: restarts=0
%%%mzn-stat: peakDepth=324
%%%mzn-stat: solveTime=0.008952965
%%%mzn-stat: variables=828
%%%mzn-stat: propagators=503
%%%mzn-stat: failures=7
%%%mzn-stat: propagations=4679
%%%mzn-stat: nogoods=7
%%%mzn-stat: numAtomicConstraintsPropagated=0
%%%mzn-stat: allDifferentNumber1PropagationsTotal=243
%%%mzn-stat: allDifferentNumber1PropagationsThatFoundConflict=4
%%%mzn-stat: allDifferentNumber1PropagationsThatPruned=129
%%%mzn-stat: allDifferentNumber1TotalValuesPruned=700
%%%mzn-stat: allDifferentNumber1TotalHallSetSizeConflict=9
%%%mzn-stat: allDifferentNumber1NumberOfConflicts=4
%%%mzn-stat: allDifferentNumber1MaxHallSetSizeConflict=3
%%%mzn-stat: allDifferentNumber1TotalPruningHallSetSize=2291
%%%mzn-stat: allDifferentNumber1NumberOfPruningExplanations=700
%%%mzn-stat: allDifferentNumber1MaxPruningHallSetSize=24
%%%mzn-stat: allDifferentNumber1TotalFixedEdgesAtConflict=192
%%%mzn-stat: allDifferentNumber1TotalVarsInvolvedInPruning=621
%%%mzn-stat: allDifferentNumber1MaxValuesPrunedFromSingleVar=7
%%%mzn-stat: allDifferentNumber1TotalSccSizeAtPruning=604
%%%mzn-stat: allDifferentNumber1NumberOfSccPruningCalls=129
%%%mzn-stat: circuitNumber2PropagationsThatFoundConflict=3
%%%mzn-stat: circuitNumber2TotalFixedEdgesAtConflict=145
%%%mzn-stat: circuitNumber2NumberOfConflicts=3
%%%mzn-stat: circuitNumber2PropagationsThatPruned=15
%%%mzn-stat: circuitNumber2PropagationsTotal=130
%%%mzn-stat: AverageConflictSize=11.428571428571429
%%%mzn-stat: NumUnitNogoodsLearned=0
%%%mzn-stat: AverageLearnedNogoodLength=30.428571428571427
%%%mzn-stat: AverageBacktrackAmount=0
%%%mzn-stat: AverageLbd=20.714285714285715
%%%mzn-stat: 2AutonomousSearchNumBackupCalled=1143
%%%mzn-stat: 2AutonomousSearchNumPredicatesRemoved=0
%%%mzn-stat: 2AutonomousSearchNumCalls=1147
%%%mzn-stat: 2AutonomousSearchNumPredicatesAdded=1224
%%%mzn-stat: 2AutonomousSearchAverageSizeOfHeap=2.4446381865736706
%%%mzn-stat: 2AutonomousSearchNumAssignedPredicatesEncountered=2804
%%%mzn-stat-end
maxleg = 917;
succ = array1d(1..50,[2, 11, 18, 19, 4, 30, 22, 35, 17, 12, 9, 41, 15, 24, 7, 3, 13, 36, 1, 25, 20, 6, 42, 32, 23, 27, 49, 50, 8, 28, 48, 34, 38, 10, 37, 46, 14, 47, 40, 33, 16, 43, 31, 39, 5, 26, 21, 45, 44, 29]);
% time elapsed: 0.24 s
----------
%%%mzn-stat: initTime=0.005069729
%%%mzn-stat: objective=912
%%%mzn-stat: nodes=1564
%%%mzn-stat: restarts=0
%%%mzn-stat: peakDepth=324
%%%mzn-stat: solveTime=0.011070359
%%%mzn-stat: variables=828
%%%mzn-stat: propagators=503
%%%mzn-stat: failures=8
%%%mzn-stat: propagations=5595
%%%mzn-stat: nogoods=8
%%%mzn-stat: numAtomicConstraintsPropagated=0
%%%mzn-stat: allDifferentNumber1PropagationsTotal=300
%%%mzn-stat: allDifferentNumber1PropagationsThatFoundConflict=4
%%%mzn-stat: allDifferentNumber1PropagationsThatPruned=158
%%%mzn-stat: allDifferentNumber1TotalValuesPruned=839
%%%mzn-stat: allDifferentNumber1TotalHallSetSizeConflict=9
%%%mzn-stat: allDifferentNumber1NumberOfConflicts=4
%%%mzn-stat: allDifferentNumber1MaxHallSetSizeConflict=3
%%%mzn-stat: allDifferentNumber1TotalPruningHallSetSize=2590
%%%mzn-stat: allDifferentNumber1NumberOfPruningExplanations=839
%%%mzn-stat: allDifferentNumber1MaxPruningHallSetSize=25
%%%mzn-stat: allDifferentNumber1TotalFixedEdgesAtConflict=192
%%%mzn-stat: allDifferentNumber1TotalVarsInvolvedInPruning=753
%%%mzn-stat: allDifferentNumber1MaxValuesPrunedFromSingleVar=7
%%%mzn-stat: allDifferentNumber1TotalSccSizeAtPruning=745
%%%mzn-stat: allDifferentNumber1NumberOfSccPruningCalls=158
%%%mzn-stat: circuitNumber2PropagationsThatFoundConflict=4
%%%mzn-stat: circuitNumber2TotalFixedEdgesAtConflict=192
%%%mzn-stat: circuitNumber2NumberOfConflicts=4
%%%mzn-stat: circuitNumber2PropagationsThatPruned=15
%%%mzn-stat: circuitNumber2PropagationsTotal=159
%%%mzn-stat: AverageConflictSize=10.25
%%%mzn-stat: NumUnitNogoodsLearned=0
%%%mzn-stat: AverageLearnedNogoodLength=27.75
%%%mzn-stat: AverageBacktrackAmount=0
%%%mzn-stat: AverageLbd=19
%%%mzn-stat: 2AutonomousSearchNumBackupCalled=1429
%%%mzn-stat: 2AutonomousSearchNumPredicatesRemoved=0
%%%mzn-stat: 2AutonomousSearchNumCalls=1434
%%%mzn-stat: 2AutonomousSearchNumPredicatesAdded=1257
%%%mzn-stat: 2AutonomousSearchAverageSizeOfHeap=2.5223152022315203
%%%mzn-stat: 2AutonomousSearchNumAssignedPredicatesEncountered=3617
%%%mzn-stat-end
maxleg = 912;
succ = array1d(1..50,[14, 11, 18, 19, 4, 30, 2, 35, 17, 12, 9, 41, 15, 24, 7, 3, 22, 36, 1, 25, 20, 6, 42, 32, 23, 27, 49, 47, 33, 28, 48, 29, 38, 50, 37, 46, 10, 44, 34, 13, 16, 43, 31, 39, 5, 26, 21, 8, 45, 40]);
% time elapsed: 0.24 s
----------
%%%mzn-stat: initTime=0.005069729
%%%mzn-stat: objective=887
%%%mzn-stat: nodes=1862
%%%mzn-stat: restarts=0
%%%mzn-stat: peakDepth=324
%%%mzn-stat: solveTime=0.013023586
%%%mzn-stat: variables=828
%%%mzn-stat: propagators=503
%%%mzn-stat: failures=10
%%%mzn-stat: propagations=6552
%%%mzn-stat: nogoods=10
%%%mzn-stat: numAtomicConstraintsPropagated=0
%%%mzn-stat: allDifferentNumber1PropagationsTotal=355
%%%mzn-stat: allDifferentNumber1PropagationsThatFoundConflict=5
%%%mzn-stat: allDifferentNumber1PropagationsThatPruned=188
%%%mzn-stat: allDifferentNumber1TotalValuesPruned=990
%%%mzn-stat: allDifferentNumber1TotalHallSetSizeConflict=11
%%%mzn-stat: allDifferentNumber1NumberOfConflicts=5
%%%mzn-stat: allDifferentNumber1MaxHallSetSizeConflict=3
%%%mzn-stat: allDifferentNumber1TotalPruningHallSetSize=2957
%%%mzn-stat: allDifferentNumber1NumberOfPruningExplanations=990
%%%mzn-stat: allDifferentNumber1MaxPruningHallSetSize=25
%%%mzn-stat: allDifferentNumber1TotalFixedEdgesAtConflict=241
%%%mzn-stat: allDifferentNumber1TotalVarsInvolvedInPruning=893
%%%mzn-stat: allDifferentNumber1MaxValuesPrunedFromSingleVar=7
%%%mzn-stat: allDifferentNumber1TotalSccSizeAtPruning=933
%%%mzn-stat: allDifferentNumber1NumberOfSccPruningCalls=188
%%%mzn-stat: circuitNumber2PropagationsThatFoundConflict=5
%%%mzn-stat: circuitNumber2TotalFixedEdgesAtConflict=242
%%%mzn-stat: circuitNumber2NumberOfConflicts=5
%%%mzn-stat: circuitNumber2PropagationsThatPruned=18
%%%mzn-stat: circuitNumber2PropagationsTotal=189
%%%mzn-stat: AverageConflictSize=10.3
%%%mzn-stat: NumUnitNogoodsLearned=0
%%%mzn-stat: AverageLearnedNogoodLength=29.9
%%%mzn-stat: AverageBacktrackAmount=0
%%%mzn-stat: AverageLbd=19
%%%mzn-stat: 2AutonomousSearchNumBackupCalled=1704
%%%mzn-stat: 2AutonomousSearchNumPredicatesRemoved=0
%%%mzn-stat: 2AutonomousSearchNumCalls=1710
%%%mzn-stat: 2AutonomousSearchNumPredicatesAdded=1460
%%%mzn-stat: 2AutonomousSearchAverageSizeOfHeap=2.6070175438596492
%%%mzn-stat: 2AutonomousSearchNumAssignedPredicatesEncountered=4458
%%%mzn-stat-end
maxleg = 887;
succ = array1d(1..50,[14, 11, 18, 19, 4, 30, 2, 35, 17, 12, 9, 41, 15, 24, 7, 3, 22, 36, 1, 40, 20, 6, 42, 32, 48, 23, 49, 47, 8, 27, 43, 34, 38, 50, 37, 46, 25, 10, 33, 13, 16, 31, 28, 39, 5, 26, 21, 44, 45, 29]);
% time elapsed: 0.24 s
----------
%%%mzn-stat: initTime=0.005069729
%%%mzn-stat: objective=818
%%%mzn-stat: nodes=2124
%%%mzn-stat: restarts=0
%%%mzn-stat: peakDepth=324
%%%mzn-stat: solveTime=0.01447142
%%%mzn-stat: variables=828
%%%mzn-stat: propagators=503
%%%mzn-stat: failures=10
%%%mzn-stat: propagations=7450
%%%mzn-stat: nogoods=10
%%%mzn-stat: numAtomicConstraintsPropagated=0
%%%mzn-stat: allDifferentNumber1PropagationsTotal=400
%%%mzn-stat: allDifferentNumber1PropagationsThatFoundConflict=5
%%%mzn-stat: allDifferentNumber1PropagationsThatPruned=212
%%%mzn-stat: allDifferentNumber1TotalValuesPruned=1128
%%%mzn-stat: allDifferentNumber1TotalHallSetSizeConflict=11
%%%mzn-stat: allDifferentNumber1NumberOfConflicts=5
%%%mzn-stat: allDifferentNumber1MaxHallSetSizeConflict=3
%%%mzn-stat: allDifferentNumber1TotalPruningHallSetSize=3338
%%%mzn-stat: allDifferentNumber1NumberOfPruningExplanations=1128
%%%mzn-stat: allDifferentNumber1MaxPruningHallSetSize=49
%%%mzn-stat: allDifferentNumber1TotalFixedEdgesAtConflict=241
%%%mzn-stat: allDifferentNumber1TotalVarsInvolvedInPruning=1019
%%%mzn-stat: allDifferentNumber1MaxValuesPrunedFromSingleVar=7
%%%mzn-stat: allDifferentNumber1TotalSccSizeAtPruning=1149
%%%mzn-stat: allDifferentNumber1NumberOfSccPruningCalls=212
%%%mzn-stat: circuitNumber2PropagationsThatFoundConflict=5
%%%mzn-stat: circuitNumber2TotalFixedEdgesAtConflict=242
%%%mzn-stat: circuitNumber2NumberOfConflicts=5
%%%mzn-stat: circuitNumber2PropagationsThatPruned=21
%%%mzn-stat: circuitNumber2PropagationsTotal=213
%%%mzn-stat: AverageConflictSize=10.3
%%%mzn-stat: NumUnitNogoodsLearned=0
%%%mzn-stat: AverageLearnedNogoodLength=29.9
%%%mzn-stat: AverageBacktrackAmount=0
%%%mzn-stat: AverageLbd=19
%%%mzn-stat: 2AutonomousSearchNumBackupCalled=1945
%%%mzn-stat: 2AutonomousSearchNumPredicatesRemoved=0
%%%mzn-stat: 2AutonomousSearchNumCalls=1952
%%%mzn-stat: 2AutonomousSearchNumPredicatesAdded=1460
%%%mzn-stat: 2AutonomousSearchAverageSizeOfHeap=2.7146516393442623
%%%mzn-stat: 2AutonomousSearchNumAssignedPredicatesEncountered=5299
%%%mzn-stat-end
maxleg = 818;
succ = array1d(1..50,[14, 11, 18, 19, 4, 30, 2, 35, 17, 12, 9, 41, 26, 24, 7, 3, 13, 36, 1, 40, 20, 6, 42, 32, 47, 23, 39, 22, 8, 44, 48, 49, 38, 50, 37, 15, 25, 10, 34, 33, 16, 31, 28, 46, 5, 27, 21, 45, 43, 29]);
% time elapsed: 0.24 s
----------
==========
% time elapsed: 0.24 s
%%%mzn-stat: initTime=0.005069729
%%%mzn-stat: objective=818
%%%mzn-stat: nodes=2124
%%%mzn-stat: restarts=0
%%%mzn-stat: peakDepth=324
%%%mzn-stat: solveTime=0.014633565
%%%mzn-stat: variables=828
%%%mzn-stat: propagators=503
%%%mzn-stat: failures=11
%%%mzn-stat: propagations=7568
%%%mzn-stat: nogoods=11
%%%mzn-stat: numAtomicConstraintsPropagated=0
%%%mzn-stat: allDifferentNumber1PropagationsTotal=401
%%%mzn-stat: allDifferentNumber1PropagationsThatFoundConflict=6
%%%mzn-stat: allDifferentNumber1PropagationsThatPruned=212
%%%mzn-stat: allDifferentNumber1TotalValuesPruned=1128
%%%mzn-stat: allDifferentNumber1TotalHallSetSizeConflict=60
%%%mzn-stat: allDifferentNumber1NumberOfConflicts=6
%%%mzn-stat: allDifferentNumber1MaxHallSetSizeConflict=49
%%%mzn-stat: allDifferentNumber1TotalPruningHallSetSize=3338
%%%mzn-stat: allDifferentNumber1NumberOfPruningExplanations=1128
%%%mzn-stat: allDifferentNumber1MaxPruningHallSetSize=49
%%%mzn-stat: allDifferentNumber1TotalFixedEdgesAtConflict=244
%%%mzn-stat: allDifferentNumber1TotalVarsInvolvedInPruning=1019
%%%mzn-stat: allDifferentNumber1MaxValuesPrunedFromSingleVar=7
%%%mzn-stat: allDifferentNumber1TotalSccSizeAtPruning=1149
%%%mzn-stat: allDifferentNumber1NumberOfSccPruningCalls=212
%%%mzn-stat: circuitNumber2PropagationsThatFoundConflict=5
%%%mzn-stat: circuitNumber2TotalFixedEdgesAtConflict=242
%%%mzn-stat: circuitNumber2NumberOfConflicts=5
%%%mzn-stat: circuitNumber2PropagationsThatPruned=21
%%%mzn-stat: circuitNumber2PropagationsTotal=213
%%%mzn-stat: AverageConflictSize=10.909090909090908
%%%mzn-stat: NumUnitNogoodsLearned=1
%%%mzn-stat: AverageLearnedNogoodLength=27.272727272727273
%%%mzn-stat: AverageBacktrackAmount=0
%%%mzn-stat: AverageLbd=17.363636363636363
%%%mzn-stat: 2AutonomousSearchNumBackupCalled=1945
%%%mzn-stat: 2AutonomousSearchNumPredicatesRemoved=0
%%%mzn-stat: 2AutonomousSearchNumCalls=1952
%%%mzn-stat: 2AutonomousSearchNumPredicatesAdded=1743
%%%mzn-stat: 2AutonomousSearchAverageSizeOfHeap=2.7146516393442623
%%%mzn-stat: 2AutonomousSearchNumAssignedPredicatesEncountered=5299
%%%mzn-stat-end
